<number of tasks>
100

<cycle time>
1000

<order strength>
0.595


<task times>
1 322
2 398
3 469
4 247
5 345
6 482
7 427
8 330
9 498
10 367
11 600
12 353
13 781
14 468
15 523
16 390
17 339
18 446
19 453
20 516
21 548
22 429
23 731
24 309
25 394
26 599
27 460
28 595
29 535
30 362
31 521
32 609
33 723
34 554
35 529
36 702
37 803
38 428
39 481
40 563
41 407
42 481
43 527
44 493
45 540
46 366
47 574
48 640
49 420
50 330
51 521
52 799
53 400
54 592
55 74
56 574
57 411
58 337
59 516
60 475
61 322
62 526
63 428
64 756
65 642
66 593
67 430
68 672
69 429
70 665
71 534
72 428
73 468
74 565
75 404
76 449
77 496
78 634
79 755
80 496
81 634
82 613
83 572
84 493
85 560
86 339
87 902
88 552
89 424
90 439
91 431
92 647
93 216
94 548
95 443
96 320
97 665
98 606
99 515
100 316

<precedence relations>
1,40
2,17
3,17
4,17
5,17
6,17
7,8
7,9
7,10
7,11
7,12
7,13
7,14
7,15
8,17
9,17
10,17
11,17
12,78
13,55
14,16
14,18
14,19
14,20
15,38
15,57
15,59
16,40
17,21
17,22
17,23
17,24
17,25
17,26
17,27
17,28
17,29
17,30
17,31
17,32
18,34
18,52
18,66
19,39
19,59
20,21
20,33
21,40
22,35
22,43
22,44
23,37
23,39
24,35
24,53
25,43
25,58
25,66
25,87
25,88
25,94
26,36
26,43
26,44
27,35
27,53
28,35
28,41
29,40
29,42
29,53
30,35
30,38
30,42
31,39
32,53
32,96
33,55
34,41
34,70
35,40
36,40
37,40
38,55
39,41
39,42
39,43
39,44
39,45
40,46
40,47
40,48
40,49
40,50
40,51
40,54
41,78
42,55
43,86
44,53
44,76
44,98
45,52
45,55
46,55
47,55
47,58
48,59
49,55
49,56
49,57
49,58
49,59
50,68
50,70
50,71
51,78
51,86
53,68
53,95
54,56
54,76
55,60
55,61
55,62
55,63
55,64
55,65
55,66
55,68
56,86
57,66
57,72
57,80
58,86
59,66
59,67
59,81
59,87
59,88
59,94
60,69
60,71
60,80
61,88
62,69
62,70
64,69
65,70
67,69
67,79
68,81
68,97
69,73
69,98
70,72
70,73
70,74
72,78
74,75
74,76
74,77
75,78
76,86
77,79
77,80
77,81
78,82
78,83
78,84
78,85
78,87
79,86
80,88
82,94
83,100
84,98
85,95
85,99
86,89
86,90
86,91
86,92
86,93
88,99
88,100
89,96
91,95
91,100
92,100
94,97
94,98
98,99
98,100

<end>
